/*********************************************
 * OPL 12.6.0.0 Data
 * Author: Adrian Rodriguez Bazaga, Pau Rodriguez Esmerats
 * Creation Date: 09/12/2017 at 00:43:04
 *********************************************/

maxConsec=13;
maxPresence=13;
maxHours=8;
minHours=5;
hours=20;
demand= [8 11 11 10 11 9 9 10 9 5 3 2 1 0 0 0 0 0 0 0  ];
nNurses=11;
